50
4273

374 267
716 465
461 903
656 994
32 581
318 729
835 359
254 628
820 440
628 222
180 59
280 399
883 633
248 544
799 584
78 472
525 484
410 503
333 18
591 52
536 394
110 554
704 692
673 270
570 133
860 555
6 288
336 264
941 395
770 242
961 648
352 455
491 595
205 75
151 78
110 98
712 984
165 877
985 660
246 692
267 995
218 338
681 677
914 482
486 643
163 940
39 974
426 297
398 324
606 59
